\Problem name: colgensavelsbergh

Minimize
OBJROW: 9191 _e(0) + 9191 _e(1) + 9191 _e(2) + 9191 _e(3) + 9191 _e(4) + 9191 _e(5) + 9191 _e(6) + 9191 _e(7) + 9191 _e(8) + 9191 _e(9)
 + 134 ll(0) + 404 ll(1) + 376 ll(2) + 393 ll(3) + 688 l(5) + 732 l(6) + 884 l(7) + 624 l(8) + 823 l(9) + 434 l(10)
 + 528 l(11) + 266 l(12) + 401 l(13) + 436 l(14) + 454 l(15) + 272 l(16) + 408 l(17) + 302 l(18) + 436 l(19) + 438 l(20)
 + 429 l(21) + 362 l(22) + 388 l(23) + 263 l(24) + 132 l(25) + 266 l(26)
Subject To
ri(0):  _e(0) + ll(2) + l(5) + l(7) + l(9) + l(10) + l(16) + l(23) = 1
ri(1):  _e(1) + ll(0) + l(19) + l(26) = 1
ri(2):  _e(2) + ll(3) + l(5) + l(6) + l(13) + l(21) + l(22) = 1
ri(3):  _e(3) + ll(1) + l(5) + l(6) + l(7) + l(8) + l(10) + l(17) + l(20) + l(24)
 = 1
ri(4):  _e(4) + ll(2) + l(17) = 1
ri(5):  _e(5) + ll(2) + l(7) + l(8) + l(9) + l(12) + l(13) + l(14) + l(23) = 1
ri(6):  _e(6) + ll(1) + l(6) + l(9) + l(15) = 1
ri(7):  _e(7) + ll(3) + l(7) + l(11) + l(13) + l(18) + l(19) + l(22) + l(25) + l(26)
 = 1
ri(8):  _e(8) + ll(3) + l(6) + l(8) + l(10) + l(11) + l(14) + l(15) + l(18) + l(19)
 + l(20) = 1
ri(9):  _e(9) + ll(1) + l(5) + l(9) + l(11) + l(12) + l(14) + l(15) + l(16) + l(17)
 + l(20) + l(21) + l(22) + l(23) + l(24) = 1
rj(0):  ll(0) + l(18) + l(19) + l(25) + l(26) + l(27) <= 1
rj(1):  ll(1) + l(5) + l(6) + l(7) + l(9) + l(10) + l(11) + l(15) + l(16) + l(17)
 + l(20) + l(21) + l(24) <= 1
rj(2):  ll(2) + l(12) + l(23) <= 1
rj(3):  ll(3) + l(8) + l(13) + l(14) + l(22) <= 1
Bounds
End
